(set-info :smt-lib-version 2.6)
(set-logic QF_NIA)
(set-info :source |
Generated by: Cristina Borralleras, Daniel Larraz, Albert Oliveras, Enric Rodriguez-Carbonell, Albert Rubio
Generated on: 2017-04-27
Generator: VeryMax
Application: Termination proving
Target solver: barcelogic
|)
(set-info :license "https://creativecommons.org/licenses/by/4.0/")
(set-info :category "industrial")
(set-info :status unsat)
(declare-fun Nl2main_life1 () Int)
(declare-fun Nl2main_death1 () Int)
(declare-fun lam0n0 () Int)
(declare-fun lam0n1 () Int)
(declare-fun lam0n2 () Int)
(declare-fun lam0n3 () Int)
(declare-fun Nl2CT1 () Int)
(declare-fun lam1n0 () Int)
(declare-fun lam1n1 () Int)
(declare-fun lam1n2 () Int)
(declare-fun lam1n3 () Int)
(declare-fun lam2n0 () Int)
(declare-fun lam2n1 () Int)
(assert ( and ( <= ( - 2 ) Nl2main_life1 ) ( <= Nl2main_life1 2 ) ( <= ( - 2 ) Nl2main_death1 ) ( <= Nl2main_death1 2 ) ))
(assert ( or ( and ( >= lam0n0 0 ) ( >= lam0n1 0 ) ( >= lam0n2 0 ) ( >= lam0n3 0 ) ( > ( + ( * 2 lam0n0 ) ( * 1 lam0n1 ) ( * 3 lam0n2 ) ( * Nl2CT1 lam0n3 ) ( - 1 ) ) 0 ) ( = ( + ( * ( - 1 ) lam0n0 ) ( * 1 lam0n1 ) ( * Nl2main_life1 lam0n3 ) ) 0 ) ( = ( + ( * ( - 1 ) lam0n1 ) ( * ( - 1 ) lam0n2 ) ( * Nl2main_death1 lam0n3 ) ) 0 ) ) ( and ( >= lam1n0 0 ) ( >= lam1n1 0 ) ( >= lam1n2 0 ) ( >= lam1n3 0 ) ( > ( + ( * 2 lam1n0 ) ( * 1 lam1n1 ) ( * 3 lam1n2 ) ( * Nl2CT1 lam1n3 ) ( - 1 ( + ( + Nl2CT1 ( * Nl2main_life1 2 ) ) ( * Nl2main_death1 1 ) ) ) ) 0 ) ( = ( + ( * ( - 1 ) lam1n0 ) ( * 1 lam1n1 ) ( * Nl2main_life1 lam1n3 ) ( - ( + 0 ( * Nl2main_death1 1 ) ) ) ) 0 ) ( = ( + ( * ( - 1 ) lam1n1 ) ( * ( - 1 ) lam1n2 ) ( * Nl2main_death1 lam1n3 ) ) 0 ) ) ))
(assert ( and ( > ( + ( * ( - 13 ) lam2n0 ) ( * ( - 17 ) lam2n1 ) ( - 1 Nl2CT1 ) ) 0 ) ( = ( + ( * 1 lam2n0 ) ( - ( + 0 Nl2main_life1 ) ) ) 0 ) ( = ( + ( * 1 lam2n1 ) ( - ( + 0 Nl2main_death1 ) ) ) 0 ) ))
(assert ( and ( >= lam0n0 0 ) ( >= lam0n1 0 ) ( >= lam0n2 0 ) ( >= lam0n3 0 ) ( > ( + ( * 2 lam0n0 ) ( * 1 lam0n1 ) ( * 3 lam0n2 ) ( * Nl2CT1 lam0n3 ) ( - 1 ) ) 0 ) ( = ( + ( * ( - 1 ) lam0n0 ) ( * 1 lam0n1 ) ( * Nl2main_life1 lam0n3 ) ) 0 ) ( = ( + ( * ( - 1 ) lam0n1 ) ( * ( - 1 ) lam0n2 ) ( * Nl2main_death1 lam0n3 ) ) 0 ) ))
(check-sat)
(exit)
